(set-logic QF_NIA)
(set-info :source |
    Sequential equivalence checking.
    Calypto Design Systems, Inc. <www.calypto.com>
  |)
(set-info :smt-lib-version 2.0)
(set-info :category "industrial")
(set-info :status sat)
(declare-fun P_2 () Int)
(declare-fun P_3 () Bool)
(declare-fun P_4 () Int)
(declare-fun P_5 () Int)
(declare-fun P_6 () Int)
(declare-fun P_7 () Int)
(declare-fun P_8 () Int)
(declare-fun P_9 () Int)
(declare-fun P_10 () Int)
(declare-fun P_11 () Int)
(declare-fun P_12 () Int)
(declare-fun P_13 () Int)
(declare-fun P_14 () Int)
(declare-fun P_15 () Int)
(declare-fun P_16 () Int)
(declare-fun P_17 () Int)
(declare-fun P_18 () Int)
(declare-fun P_19 () Int)
(declare-fun P_20 () Int)
(declare-fun P_21 () Int)
(declare-fun P_22 () Int)
(declare-fun P_23 () Int)
(declare-fun P_24 () Int)
(declare-fun P_25 () Int)
(declare-fun P_26 () Int)
(declare-fun P_27 () Int)
(declare-fun P_28 () Int)
(declare-fun P_29 () Int)
(declare-fun P_30 () Int)
(declare-fun P_31 () Int)
(declare-fun P_32 () Int)
(declare-fun P_33 () Int)
(declare-fun P_34 () Int)
(declare-fun P_36 () Int)
(assert (<= 0 P_2))
(assert (<= P_2 3))
(assert (<= 0 P_4))
(assert (<= P_4 255))
(assert (<= 0 P_5))
(assert (<= P_5 255))
(assert (<= 0 P_6))
(assert (<= P_6 255))
(assert (<= 0 P_7))
(assert (<= P_7 255))
(assert (<= 0 P_8))
(assert (<= P_8 255))
(assert (<= 0 P_9))
(assert (<= P_9 255))
(assert (<= 0 P_10))
(assert (<= P_10 255))
(assert (<= 0 P_11))
(assert (<= P_11 255))
(assert (<= 0 P_12))
(assert (<= P_12 255))
(assert (<= 0 P_13))
(assert (<= P_13 3))
(assert (<= 0 P_14))
(assert (<= P_14 255))
(assert (<= 0 P_15))
(assert (<= P_15 255))
(assert (<= 0 P_16))
(assert (<= P_16 255))
(assert (<= 0 P_17))
(assert (<= P_17 255))
(assert (<= 0 P_18))
(assert (<= P_18 255))
(assert (<= 0 P_19))
(assert (<= P_19 255))
(assert (<= 0 P_20))
(assert (<= P_20 255))
(assert (<= 0 P_21))
(assert (<= P_21 255))
(assert (<= 0 P_22))
(assert (<= P_22 255))
(assert (<= 0 P_23))
(assert (<= P_23 255))
(assert (<= 0 P_24))
(assert (<= P_24 255))
(assert (<= 0 P_25))
(assert (<= P_25 255))
(assert (<= 0 P_26))
(assert (<= P_26 255))
(assert (<= 0 P_27))
(assert (<= P_27 255))
(assert (<= 0 P_28))
(assert (<= P_28 3))
(assert (<= 0 P_29))
(assert (<= P_29 255))
(assert (<= 0 P_30))
(assert (<= P_30 255))
(assert (<= 0 P_31))
(assert (<= P_31 255))
(assert (<= 0 P_32))
(assert (<= P_32 255))
(assert (<= 0 P_33))
(assert (<= P_33 3))
(assert (<= 0 P_34))
(assert (<= P_34 255))
(assert (<= 0 P_36))
(assert (<= P_36 255))
(declare-fun dz () Int)
(declare-fun rz () Int)
(assert (let ((?v_1 (not P_3))) (let ((?v_2 (+ (ite ?v_1 (- P_4 P_5) P_6) (ite ?v_1 (* P_4 P_7) P_8))) (?v_21 (* (ite ?v_1 (- P_9 P_10) P_11) (ite ?v_1 P_7 P_12))) (?v_3 (+ P_6 P_8)) (?v_22 (* P_11 P_12)) (?v_9 (= P_13 2)) (?v_8 (= P_13 1)) (?v_7 (= P_13 0))) (let ((?v_14 (ite ?v_7 ?v_3 (ite ?v_8 ?v_3 (ite ?v_9 ?v_22 P_14)))) (?v_6 (= P_2 2)) (?v_4 (= P_2 1)) (?v_0 (= P_2 0)) (?v_5 (ite ?v_1 P_15 P_16)) (?v_23 (ite ?v_1 (* P_5 P_17) P_18)) (?v_15 (ite ?v_7 P_16 (ite ?v_8 P_16 (ite ?v_9 P_18 P_19))))) (let ((?v_10 (+ (ite ?v_0 ?v_2 (ite ?v_4 ?v_2 (ite ?v_6 ?v_21 ?v_14))) (ite ?v_0 ?v_5 (ite ?v_4 ?v_5 (ite ?v_6 ?v_23 ?v_15))))) (?v_11 (* (ite ?v_1 (+ P_20 P_21) P_22) (ite ?v_1 P_23 P_24))) (?v_12 (* P_22 P_24))) (let ((?v_17 (ite ?v_7 ?v_12 (ite ?v_8 ?v_12 (ite ?v_9 ?v_12 P_25)))) (?v_13 (ite ?v_1 (* P_4 P_20) P_26)) (?v_18 (ite ?v_7 P_26 (ite ?v_8 P_26 (ite ?v_9 P_26 P_27)))) (?v_16 (+ ?v_14 ?v_15)) (?v_19 (+ P_14 P_19)) (?v_31 (= P_28 2)) (?v_29 (= P_28 1)) (?v_28 (= P_28 0))) (let ((?v_34 (ite ?v_28 ?v_19 (ite ?v_29 ?v_19 (ite ?v_31 (+ P_25 P_27) P_29))))) (let ((?v_32 (ite ?v_7 ?v_16 (ite ?v_8 ?v_16 (ite ?v_9 (+ ?v_17 ?v_18) ?v_34))))) (let ((?v_20 (ite ?v_0 ?v_10 (ite ?v_4 ?v_10 (ite ?v_6 (+ (ite ?v_0 ?v_11 (ite ?v_4 ?v_11 (ite ?v_6 ?v_11 ?v_17))) (ite ?v_0 ?v_13 (ite ?v_4 ?v_13 (ite ?v_6 ?v_13 ?v_18)))) ?v_32)))) (?v_25 (ite ?v_7 ?v_22 (ite ?v_8 ?v_22 (ite ?v_9 ?v_3 P_30)))) (?v_26 (ite ?v_7 P_18 (ite ?v_8 P_18 (ite ?v_9 P_16 P_31))))) (let ((?v_24 (+ (ite ?v_0 ?v_21 (ite ?v_4 ?v_21 (ite ?v_6 ?v_2 ?v_25))) (ite ?v_0 ?v_23 (ite ?v_4 ?v_23 (ite ?v_6 ?v_5 ?v_26))))) (?v_27 (+ ?v_25 ?v_26)) (?v_30 (+ P_30 P_31))) (let ((?v_35 (ite ?v_28 ?v_30 (ite ?v_29 ?v_30 (ite ?v_31 ?v_30 P_32))))) (let ((?v_33 (ite ?v_7 ?v_27 (ite ?v_8 ?v_27 (ite ?v_9 ?v_27 ?v_35))))) (let ((?v_36 (ite ?v_0 ?v_24 (ite ?v_4 ?v_24 (ite ?v_6 ?v_24 ?v_33)))) (?v_39 (= P_33 2)) (?v_38 (= P_33 1)) (?v_37 (= P_33 0))) (= (+ (* 256 dz) rz) (- (ite ?v_0 ?v_20 (ite ?v_4 ?v_20 (ite ?v_6 ?v_36 (ite ?v_7 ?v_32 (ite ?v_8 ?v_32 (ite ?v_9 ?v_33 (ite ?v_28 ?v_34 (ite ?v_29 ?v_34 (ite ?v_31 ?v_35 (ite ?v_37 P_29 (ite ?v_38 P_29 (ite ?v_39 P_32 P_36)))))))))))) (ite ?v_0 ?v_20 (ite ?v_4 ?v_20 (ite ?v_6 ?v_36 (ite ?v_7 ?v_32 (ite ?v_8 ?v_32 (ite ?v_9 ?v_33 (ite ?v_28 ?v_34 (ite ?v_29 ?v_34 (ite ?v_31 ?v_35 (ite ?v_37 P_29 (ite ?v_38 P_29 (ite ?v_39 P_32 P_34)))))))))))))))))))))))))))
(assert (> rz 0))
(assert (< rz 256))
(check-sat)
(exit)
